Solving original (integer) problem with strategy gdp.binary_multiplication...
--- Job model.gms Start 02/19/26 05:10:44 52.2.0 d8e408be LEX-LEG x86 64bit/Linux
--- Applying:
    /package/gams/52.2/gmsprmun.txt
--- GAMS Parameters defined
    Input /local/scratch/a/sgusev/repos/k_means/data/gams_gurobi_gdp.binary_multiplication/no_mode/2026-02-19_05-10-43/original/model.gms
    Output /local/scratch/a/sgusev/repos/k_means/data/gams_gurobi_gdp.binary_multiplication/no_mode/2026-02-19_05-10-43/original/output.lst
    ScrDir /local/scratch/a/sgusev/repos/k_means/data/gams_gurobi_gdp.binary_multiplication/no_mode/2026-02-19_05-10-43/original/225a/
    SysDir /package/gams/52.2/
    CurDir /local/scratch/a/sgusev/repos/k_means/data/gams_gurobi_gdp.binary_multiplication/no_mode/2026-02-19_05-10-43/original/
    LogOption 3
    AppendLog 1
Licensee: David Bernal / SECQUOIA Research Group         G251008+0003Ac-GEN
          Purdue University, Davidson School of Chemical EngineeringDCE4838
          225a/gamslice.dat
          5a82958a-fbca-4a23
          node:66820903 mem:995 cores:48 ipport:39253 v:2                  
          Evaluation license: Not for commercial or production use
          The time-limited license stops working on : Jun 30, 2027
System information: 48 physical cores and 995 Gb physical memory detected
GAMS 52.2.0   Copyright (C) 1987-2025 GAMS Development. All rights reserved
--- Starting compilation
--- model.gms(399) 2 Mb
--- $echo File /local/scratch/a/sgusev/repos/k_means/data/gams_gurobi_gdp.binary_multiplication/no_mode/2026-02-19_05-10-43/original/gurobi.opt
--- model.gms(676) 2 Mb
--- Starting execution: elapsed 0:00:00.006
--- model.gms(408) 3 Mb
--- Generating MINLP model GAMS_MODEL
--- model.gms(412) 5 Mb
---   95 rows  116 columns  624 non-zeroes
---   1,725 nl-code  525 nl-non-zeroes
---   75 discrete-columns
--- Range statistics (absolute non-zero finite values)
--- RHS       [min, max] : [ 1.000E+00, 1.000E+00] - Zero values observed as well
--- Bound     [min, max] : [ 1.000E+00, 1.500E+02] - Zero values observed as well
--- Matrix    [min, max] : [ 6.199E-01, 2.575E+00] - Zero values observed as well
--- model.gms(412) 3 Mb
--- Executing GUROBI (Solvelink=5): elapsed 0:00:00.009
Reading parameter(s) from "/local/scratch/a/sgusev/repos/k_means/data/gams_gurobi_gdp.binary_multiplication/no_mode/2026-02-19_05-10-43/original/gurobi.opt"
>>  NonConvex 2
>>  Threads 1
>>  MIPGap 1e-06
>>  MIPGapAbs 1e-10
>>  FeasibilityTol 1e-06
>>  OptimalityTol 1e-06
>>  IntFeasTol 1e-05
Finished reading from "/local/scratch/a/sgusev/repos/k_means/data/gams_gurobi_gdp.binary_multiplication/no_mode/2026-02-19_05-10-43/original/gurobi.opt"

... GRB_LICENSE_FILE = /local/scratch/a/sgusev/gurobi.lic

    Gurobi           52.2.0 d8e408be Dec 8, 2025           LEG x86 64bit/Linux    

... GAMS/Gurobi Link license.
... GMO Q Extraction (ThreePass): 0.00s

    Gurobi Optimizer version 13.0.0 build v13.0.0rc1 (linux64 - "Oracle Linux Server 9.7")
    
    CPU model: AMD EPYC 7643 48-Core Processor, instruction set [SSE2|AVX|AVX2]
    Thread count: 48 physical cores, 96 logical processors, using up to 1 threads
    
    Non-default parameters:
    TimeLimit  300
    MIPGap  1e-06
    LogToConsole  0
    NonConvex  2
    Threads  1
    
    Optimize a model with 94 rows, 190 columns and 158 nonzeros (Min)
    Model fingerprint: 0xe1ff5699
    Model has 15 linear objective coefficients
    Model has 75 general nonlinear constraints (450 nonlinear terms)
    Variable types: 115 continuous, 75 integer (0 binary)
    Coefficient statistics:
      Matrix range     [1e+00, 1e+00]
      Objective range  [1e+00, 1e+00]
      Bounds range     [1e+00, 2e+02]
      RHS range        [1e+00, 1e+00]
      NLCon coe range  [4e-03, 1e+00]
    Presolve model has 75 nlconstr
    Added 825 variables to disaggregate expressions
    Presolve removed 75 rows and 0 columns
    Presolve time: 0.00s
    Presolved: 1894 rows, 1091 columns, 4358 nonzeros
    Presolved model has 375 bilinear constraint(s)
    
    Solving non-convex MIQCP to global optimality
    
    Variable types: 1016 continuous, 75 integer (75 binary)
    Found heuristic solution: objective 20.6700684
    
    Root relaxation: objective 0.000000e+00, 701 iterations, 0.01 seconds (0.01 work units)
    
        Nodes    |    Current Node    |     Objective Bounds      |     Work
     Expl Unexpl |  Obj  Depth IntInf | Incumbent    BestBd   Gap | It/Node Time
    
         0     0    0.00000    0  375   20.67007    0.00000   100%     -    0s
    H    0     0                      15.7330430    0.00000   100%     -    0s
         0     0    0.00000    0  407   15.73304    0.00000   100%     -    0s
         0     0    0.00000    0  420   15.73304    0.00000   100%     -    0s
         0     0    0.00000    0  393   15.73304    0.00000   100%     -    0s
         0     0    0.00000    0  403   15.73304    0.00000   100%     -    0s
         0     0    0.00000    0  393   15.73304    0.00000   100%     -    0s
         0     0    0.00000    0  393   15.73304    0.00000   100%     -    0s
         0     0    0.00000    0  393   15.73304    0.00000   100%     -    0s
         0     0    0.00000    0  393   15.73304    0.00000   100%     -    0s
    H    0     0                      15.2528287    0.00000   100%     -    0s
    H    0     0                      13.9950716    0.00000   100%     -    0s
         0     2    0.00000    0  393   13.99507    0.00000   100%     -    0s
    H    4     4                      12.3404910    0.00000   100%  28.5    0s
    H   42    42                      11.0542328    0.00000   100%  24.0    0s
    H   53    53                      10.4210075    0.00000   100%  20.6    0s
    H  138   138                      10.2069018    0.00000   100%  12.8    1s
    H  138   138                      10.2067045    0.00000   100%  12.8    1s
    H  138   138                      10.2066934    0.00000   100%  12.8    1s
    H  163   163                      10.1691169    0.00000   100%  11.4    1s
    H  163   163                      10.1621840    0.00000   100%  11.4    1s
    H  163   163                      10.1214788    0.00000   100%  11.4    1s
    H  163   163                      10.1195970    0.00000   100%  11.4    1s
    H  163   163                      10.1192473    0.00000   100%  11.4    1s
    H  163   163                      10.1190995    0.00000   100%  11.4    1s
    H  163   163                      10.1190893    0.00000   100%  11.4    1s
    H  163   163                      10.1190761    0.00000   100%  11.4    1s
    H  204   190                      10.0260522    0.00000   100%  14.7    1s
    H  204   190                      10.0133775    0.00000   100%  14.7    1s
    H  494   434                      10.0011735    0.00000   100%  15.5    1s
    H  494   430                       9.8171139    0.00000   100%  15.5    1s
    H  516   448                       9.6800991    0.00000   100%  15.4    1s
    H  578   476                       9.5973133    0.00000   100%  25.4    3s
    H  578   453                       9.4995725    0.00000   100%  25.4    3s
    H  578   430                       9.4787796    0.00000   100%  25.4    3s
    H  578   408                       9.4785813    0.00000   100%  25.4    3s
    H  578   388                       9.4785743    0.00000   100%  25.4    3s
    H  578   369                       9.4785728    0.00000   100%  25.4    3s
    H  579   350                       9.4777988    0.00000   100%  25.5    3s
    H  579   333                       9.4770281    0.00000   100%  25.5    3s
    H  579   316                       9.4768412    0.00000   100%  25.5    3s
    H  582   302                       9.4002521    0.00000   100%  25.4    3s
    H  629   319                       9.3902020    0.00000   100%  25.7    3s
    H  629   305                       9.3898385    0.00000   100%  25.7    3s
    H  646   302                       9.3283412    0.00000   100%  25.6    3s
    H  650   292                       9.3154928    0.00000   100%  25.5    3s
    H  672   294                       9.3139706    0.00000   100%  25.3    3s
    H 1147   508                       9.1915022    0.00000   100%  23.1    4s
    H 1147   497                       9.1875194    0.00000   100%  23.1    4s
    H 1147   487                       9.1875163    0.00000   100%  23.1    4s
    H 1150   467                       8.2758121    0.00000   100%  23.1    4s
    H 1160   473                       8.2501325    0.00000   100%  23.1    4s
    H 1312   596                       8.2414926    0.00000   100%  22.5    4s
    H 1396   668                       8.2088656    0.00000   100%  22.3    4s
    H 1396   668                       8.2085506    0.00000   100%  22.3    4s
    H 1397   651                       7.8985554    0.00000   100%  22.4    4s
    H 1397   651                       7.8960684    0.00000   100%  22.4    4s
    H 1397   651                       7.8779341    0.00000   100%  22.4    4s
      1440   677    1.01372   24  356    7.87793    0.00000   100%  22.4    5s
    H 1586   804                       7.7090383    0.00000   100%  21.8    5s
    H 1586   804                       7.7026105    0.00000   100%  21.8    5s
    H 1628   846                       7.7003751    0.00000   100%  21.5    5s
    H 1628   846                       7.7002261    0.00000   100%  21.5    5s
    H 1691   909                       7.7002248    0.00000   100%  21.2    5s
    H 1706   923                       7.5686048    0.00000   100%  21.3    5s
    H 1706   923                       7.5449434    0.00000   100%  21.3    5s
    H 1706   923                       7.5194147    0.00000   100%  21.3    5s
    H 1706   923                       7.5165168    0.00000   100%  21.3    5s
    H 1785  1002                       7.5030221    0.00000   100%  21.3    5s
    H 1785  1002                       7.5027268    0.00000   100%  21.3    5s
    H 1858  1047                       7.5027265    0.00000   100%  21.7    5s
    H 1858  1044                       7.4548182    0.00000   100%  21.7    5s
    H 1858  1044                       7.4464185    0.00000   100%  21.7    5s
    H 1920  1105                       7.4463809    0.00000   100%  21.5    5s
    H 1920  1105                       7.4403520    0.00000   100%  21.5    5s
    H 1920  1105                       7.4371150    0.00000   100%  21.5    5s
    H 2162  1311                       7.4371141    0.00000   100%  20.9    6s
    H 2163  1310                       7.3715542    0.00000   100%  20.9    6s
    H 2163  1308                       7.3618751    0.00000   100%  20.9    6s
    H 2431  1516                       7.3545681    0.00000   100%  19.8    6s
    H 2594  1678                       7.3405234    0.00000   100%  19.7    6s
    H 2664  1712                       7.0632013    0.00000   100%  19.5    6s
    H 2664  1710                       7.0534364    0.00000   100%  19.5    6s
    H 2793  1797                       7.0534341    0.00000   100%  19.4    7s
    H 2807  1725                       6.8411722    0.00000   100%  19.4    7s
    H 2807  1725                       6.8410757    0.00000   100%  19.4    7s
    H 2861  1760                       6.8410752    0.00000   100%  19.5    7s
    H 2949  1825                       6.7871324    0.00000   100%  19.4    7s
    H 2949  1825                       6.7799559    0.00000   100%  19.4    7s
    H 3030  1894                       6.7795905    0.00000   100%  19.2    7s
    H 3063  1878                       6.6734876    0.00000   100%  19.2    7s
    H 3063  1878                       6.6622249    0.00000   100%  19.2    7s
    H 3063  1878                       6.6595949    0.00000   100%  19.2    7s
    H 3063  1878                       6.6588036    0.00000   100%  19.2    7s
    H 3063  1878                       6.6586885    0.00000   100%  19.2    7s
    H 3140  1923                       6.5876996    0.00000   100%  19.1    7s
    H 3140  1922                       6.5825268    0.00000   100%  19.1    7s
    H 3140  1922                       6.5816694    0.00000   100%  19.1    7s
    H 3140  1922                       6.5814709    0.00000   100%  19.1    7s
    H 3350  2053                       6.5814700    0.00000   100%  18.9    8s
    H 3599  2152                       6.5810128    0.00000   100%  19.2    8s
    H 3599  2152                       6.5810101    0.00000   100%  19.2    8s
    H 3693  2224                       6.5810086    0.00000   100%  19.2    8s
    H 3752  2259                       6.5803963    0.00000   100%  19.1    8s
    H 3752  2259                       6.5803935    0.00000   100%  19.1    8s
    H 3779  2278                       6.5803930    0.00000   100%  19.1    8s
    H 3779  2271                       6.5571100    0.00000   100%  19.1    8s
    H 3782  2274                       6.5536916    0.00000   100%  19.1    8s
    H 3782  2274                       6.5469765    0.00000   100%  19.1    8s
    H 3782  2274                       6.5469759    0.00000   100%  19.1    8s
    H 3909  2347                       6.5469756    0.00000   100%  19.1    9s
    H 4209  2542                       6.5468077    0.00000   100%  19.1    9s
    H 4258  2571                       6.5330040    0.00000   100%  19.1    9s
    H 4292  2585                       6.5329645    0.00000   100%  19.2    9s
    H 4292  2585                       6.5328062    0.00000   100%  19.2    9s
    H 4292  2585                       6.5327476    0.00000   100%  19.2    9s
    H 4292  2585                       6.5327262    0.00000   100%  19.2    9s
    H 4362  2629                       6.5327111    0.00000   100%  19.2   10s
    H 4362  2629                       6.5326103    0.00000   100%  19.2   10s
    H 4362  2629                       6.5326075    0.00000   100%  19.2   10s
    H 4444  2609                       6.3057569    0.00000   100%  19.3   10s
    H 4444  2607                       6.2997365    0.00000   100%  19.3   10s
    H 4485  2619                       6.2902150    0.00000   100%  19.3   10s
    H 4524  2596                       6.2169723    0.00000   100%  19.3   10s
    H 4558  2620                       6.2169716    0.00000   100%  19.3   10s
    H 4829  2802                       6.2169685    0.00000   100%  19.1   10s
    H 4927  2845                       6.2123056    0.00000   100%  19.1   10s
    H 4927  2845                       6.2122569    0.00000   100%  19.1   10s
    H 4966  2866                       6.1888356    0.00000   100%  19.1   10s
    H 4966  2865                       6.1856480    0.00000   100%  19.1   10s
    H 5375  3116                       6.1856457    0.00000   100%  19.1   11s
    H 5854  3427                       6.1856445    0.00000   100%  19.3   12s
    H 6095  3533                       6.1856276    0.00000   100%  19.8   12s
    H 6153  3565                       6.1856250    0.00000   100%  19.9   12s
    H 7155  4182                       6.1176720    0.00000   100%  20.5   13s
    H 7195  4206                       6.1173861    0.00000   100%  20.6   14s
    H 7195  4206                       6.1169675    0.00000   100%  20.6   14s
    H 7247  4238                       6.1084610    0.00000   100%  20.6   14s
    H 7299  4262                       6.0993028    0.00000   100%  20.6   14s
    H 7351  4287                       6.0974260    0.00000   100%  20.6   14s
    H 7351  4285                       6.0794239    0.00000   100%  20.6   14s
    H 7351  4284                       6.0681335    0.00000   100%  20.6   14s
    H 7403  4289                       6.0445547    0.00000   100%  20.7   14s
    H 7455  4311                       6.0388840    0.00000   100%  20.7   14s
    H 7455  4310                       6.0356244    0.00000   100%  20.7   14s
    H 7455  4309                       6.0277789    0.00000   100%  20.7   14s
    H 7455  4309                       6.0256342    0.00000   100%  20.7   14s
    H 7455  4309                       6.0256308    0.00000   100%  20.7   14s
    H 7507  4322                       6.0190802    0.00000   100%  20.7   14s
    H 7507  4322                       6.0183423    0.00000   100%  20.7   14s
    H 7559  4355                       6.0063863    0.00000   100%  20.8   14s
    H 7611  4371                       5.9935589    0.00000   100%  20.8   14s
    H 7611  4371                       5.9932018    0.00000   100%  20.8   14s
      7637  4385    5.30218   47  251    5.99320    0.00000   100%  20.8   15s
    H 7767  4493                       5.9931714    0.00000   100%  20.8   15s
    H 7767  4493                       5.9931529    0.00000   100%  20.8   15s
    H 7767  4493                       5.9931498    0.00000   100%  20.8   15s
    H 7820  4526                       5.9802783    0.00000   100%  20.7   15s
    H 7820  4506                       5.9634942    0.00000   100%  20.7   15s
    H 7820  4506                       5.9634792    0.00000   100%  20.7   15s
    H 7820  4506                       5.9634789    0.00000   100%  20.7   15s
    H 7820  4506                       5.9634751    0.00000   100%  20.7   15s
    H 7820  4506                       5.9634616    0.00000   100%  20.7   15s
    H 7872  4553                       5.9577241    0.00000   100%  20.6   15s
    H 8165  4733                       5.9563733    0.00000   100%  20.5   15s
    H 8165  4733                       5.9560397    0.00000   100%  20.5   15s
    H 8165  4733                       5.9552661    0.00000   100%  20.5   15s
    H 8982  5225                       5.9552656    0.00000   100%  20.4   16s
    H 9245  5414                       5.9549824    0.00000   100%  20.2   17s
    H 9298  5433                       5.9549801    0.00000   100%  20.2   17s
    H 9298  5433                       5.9549799    0.00000   100%  20.2   17s
    H 9624  5631                       5.9440715    0.00000   100%  20.2   17s
    H 9676  5656                       5.9436104    0.00000   100%  20.1   17s
    H 9780  5695                       5.9432653    0.00000   100%  20.2   17s
    H 9780  5695                       5.9432551    0.00000   100%  20.2   17s
    H 9780  5695                       5.9431977    0.00000   100%  20.2   17s
     10202  5994     cutoff   88         5.94320    0.00000   100%  20.2   20s
    H10611  6208                       5.9431333    0.00000   100%  20.5   20s
    H10933  6395                       5.9374176    0.00000   100%  20.8   21s
    H10933  6391                       5.9317277    0.00000   100%  20.8   21s
    H10933  6391                       5.9317231    0.00000   100%  20.8   21s
    H11141  6536                       5.9314760    0.00000   100%  20.8   21s
    H11352  6643                       5.9303654    0.00000   100%  20.9   21s
    H11352  6643                       5.9301967    0.00000   100%  20.9   21s
    H11479  6716                       5.9301955    0.00000   100%  21.1   21s
    H11621  6795                       5.9301620    0.00000   100%  21.1   22s
    H11621  6795                       5.9301595    0.00000   100%  21.1   22s
    H11885  6901                       5.9287252    0.00000   100%  21.3   22s
    H11885  6895                       5.9258854    0.00000   100%  21.3   22s
    H11941  6920                       5.9258846    0.00000   100%  21.4   22s
    H12546  7303                       5.9258843    0.00000   100%  21.6   23s
    H12702  7390                       5.9258699    0.00000   100%  21.7   23s
    H12702  7390                       5.9258695    0.00000   100%  21.7   23s
    H12754  7409                       5.9191492    0.00000   100%  21.7   23s
    H12754  7407                       5.9172206    0.00000   100%  21.7   23s
    H12910  7518                       5.9172112    0.00000   100%  21.8   23s
     13691  8065    4.53811   39  359    5.91721    0.00000   100%  21.8   25s
    H13902  8152                       5.9170868    0.00000   100%  21.8   25s
    H13902  8152                       5.9170848    0.00000   100%  21.8   25s
    H14646  8614                       5.9170711    0.00000   100%  22.0   26s
    H14646  8614                       5.9170689    0.00000   100%  22.0   26s
    H15277  8971                       5.9170676    0.00000   100%  22.1   27s
    H15420  9033                       5.9170655    0.00000   100%  22.2   27s
    H16420  9604                       5.9170635    0.00000   100%  22.2   29s
    H16420  9604                       5.9170634    0.00000   100%  22.2   29s
    H16813  9828                       5.9170627    0.00000   100%  22.2   29s
     17074 10009    3.18460   44  372    5.91706    0.00000   100%  22.3   30s
     19846 11725    3.05048   30  362    5.91706    0.00000   100%  22.4   35s
     23369 13845    3.08898   32  387    5.91706    0.00000   100%  22.6   40s
     26732 15859     cutoff   35         5.91706    0.00000   100%  22.6   45s
    H29185 17331                       5.9107148    0.00000   100%  22.5   49s
    H29185 17327                       5.9088300    0.00000   100%  22.5   49s
    H29230 17338                       5.9087399    0.00000   100%  22.5   49s
     29268 17355    4.63327   38  352    5.90874    0.00000   100%  22.5   50s
    H29282 17355                       5.9086903    0.00000   100%  22.5   50s
    H29282 17355                       5.9084864    0.00000   100%  22.5   50s
    H29334 17375                       5.9083267    0.00000   100%  22.6   50s
    H29334 17375                       5.9083267    0.00000   100%  22.6   50s
    H29491 17457                       5.9083187    0.00000   100%  22.6   50s
    H29648 17555                       5.9083184    0.00000   100%  22.6   50s
    H29742 17613                       5.9082968    0.00000   100%  22.6   50s
    H29806 17671                       5.9082068    0.00000   100%  22.6   50s
    H29858 17701                       5.9081568    0.00000   100%  22.6   51s
    H29907 17708                       5.9081418    0.00000   100%  22.6   51s
    H29962 17735                       5.9081247    0.00000   100%  22.6   51s
    H30066 17793                       5.9080962    0.00000   100%  22.6   51s
    H30066 17793                       5.9080366    0.00000   100%  22.6   51s
    H30170 17859                       5.9080349    0.00000   100%  22.6   51s
    H30234 17895                       5.9080319    0.00000   100%  22.6   51s
    H30275 17909                       5.9078591    0.00000   100%  22.6   51s
    H30397 17965                       5.9078566    0.00000   100%  22.7   51s
    H30537 18052                       5.9078177    0.00000   100%  22.6   52s
    H30537 18052                       5.9078170    0.00000   100%  22.6   52s
    H30641 18117                       5.9075601    0.00000   100%  22.6   52s
    H30669 18123                       5.9075406    0.00000   100%  22.6   52s
    H30669 18123                       5.9075405    0.00000   100%  22.6   52s
    H30833 18180                       5.9075397    0.00000   100%  22.7   52s
    H30903 18220                       5.9074380    0.00000   100%  22.7   52s
    H31165 18378                       5.9074260    0.00000   100%  22.7   53s
    H31373 18491                       5.9072830    0.00000   100%  22.7   53s
    H31980 18840                       5.9072800    0.00000   100%  22.7   54s
    H32304 19012                       5.9072767    0.00000   100%  22.7   55s
    H32304 19012                       5.9072725    0.00000   100%  22.7   55s
    H32358 19034                       5.9072648    0.00000   100%  22.7   55s
    H32412 19071                       5.9072632    0.00000   100%  22.8   55s
    H32629 19197                       5.9072544    0.00000   100%  22.8   55s
    H32890 19347                       5.9072544    0.00000   100%  22.8   55s
    H32890 19347                       5.9072543    0.00000   100%  22.8   55s
    H32999 19407                       5.9072476    0.00000   100%  22.8   56s
    H33681 19732                       5.9072302    0.00000   100%  22.9   56s
    H34102 19942                       5.9072297    0.00000   100%  23.0   57s
    H34571 20207                       5.9072292    0.00000   100%  23.1   58s
    H34883 20377                       5.9070441    0.00000   100%  23.1   58s
    H35460 20712                       5.9070426    0.00000   100%  23.2   59s
    H35566 20775                       5.9070417    0.00000   100%  23.2   59s
    H35566 20775                       5.9070416    0.00000   100%  23.2   59s
    H35569 20778                       5.9070404    0.00000   100%  23.2   59s
     35759 20910     cutoff   46         5.90704    0.00000   100%  23.2   60s
    H37972 22134                       5.9070391    0.00000   100%  23.6   63s
    H38024 22157                       5.9070299    0.00000   100%  23.6   63s
    H39024 22777                       5.9070271    0.00000   100%  23.6   64s
     39051 22793    5.77097   48  351    5.90703    0.00000   100%  23.6   65s
     41901 24406    5.44523   38  386    5.90703    0.00000   100%  23.8   70s
     45286 26191     cutoff   39         5.90703    0.00000   100%  24.2   75s
     48661 28145 infeasible   43         5.90703    0.00000   100%  24.5   80s
     51349 29569    5.34827   46  363    5.90703    0.00000   100%  24.6   85s
     54466 31351    0.10777   36  389    5.90703    0.00000   100%  24.8   90s
     57887 33186    0.00000   26  394    5.90703    0.00000   100%  25.0   95s
     60391 34652    4.60590   41  370    5.90703    0.00000   100%  25.2  100s
     63604 36381    4.84107   33  386    5.90703    0.00000   100%  25.5  105s
     66942 38219    3.10325   30  369    5.90703    0.00000   100%  25.6  110s
     69818 39742    5.18846   92  340    5.90703    0.00000   100%  25.8  115s
     73137 41514    4.98342   44  334    5.90703    0.00000   100%  26.0  120s
     76515 43289    4.12980   41  372    5.90703    0.00000   100%  26.2  125s
     79895 45360    4.61755   25  374    5.90703    0.00000   100%  26.2  131s
     82409 46732 infeasible   42         5.90703    0.00000   100%  26.2  135s
     85892 48897     cutoff   29         5.90703    0.00000   100%  26.1  140s
     89271 50969    1.67603   29  392    5.90703    0.00000   100%  26.0  145s
     92028 52541    3.69486   33  369    5.90703    0.00000   100%  26.1  150s
    H92545 52810                       5.9070267    0.00000   100%  26.1  150s
     95446 54362     cutoff   46         5.90703    0.00000   100%  26.3  155s
    H97257 55389                       5.9070263    0.00000   100%  26.3  157s
     98780 56235    4.80080   41  361    5.90703    0.00000   100%  26.4  160s
     101276 57506    5.60416   48  343    5.90703    0.00000   100%  26.5  165s
    H101338 57544                       5.9070257    0.00000   100%  26.5  165s
    H103764 58884                       5.9070250    0.00000   100%  26.6  168s
     104604 59364    5.35314   45  369    5.90702    0.00000   100%  26.6  170s
     107728 61133    0.49677   39  375    5.90702    0.00000   100%  26.6  175s
     110340 62601    4.89071   62  358    5.90702    0.00000   100%  26.6  180s
     113597 64438    5.01122   62  360    5.90702    0.00048   100%  26.5  185s
     116828 66023     cutoff   35         5.90702    0.00768   100%  26.6  190s
     119787 67484     cutoff   40         5.90702    0.02161   100%  26.6  195s
     122742 69015    2.16506   30  334    5.90702    0.02336   100%  26.6  200s
    H124468 69866                       5.9070242    0.02669   100%  26.6  202s
    H124527 69885                       5.9070242    0.02669   100%  26.6  202s
    H124579 69913                       5.9070242    0.02669   100%  26.6  202s
    H125573 70393                       5.9070215    0.03006  99.5%  26.7  204s
    H125573 70393                       5.9070190    0.03006  99.5%  26.7  204s
     126005 70594     cutoff   31         5.90702    0.03257  99.4%  26.7  205s
    H126573 70902                       5.9070190    0.03446  99.4%  26.7  205s
    H128834 71962                       5.9070183    0.03446  99.4%  26.6  209s
     129339 72207    4.50116   41  351    5.90702    0.03446  99.4%  26.6  210s
     132006 73531     cutoff   51         5.90702    0.04613  99.2%  26.7  215s
     135418 75235     cutoff   38         5.90702    0.06640  98.9%  26.7  220s
     139549 77426    5.15579   45  368    5.90702    0.06958  98.8%  26.7  225s
    H141667 78218                       5.8027595    0.07215  98.8%  26.7  227s
    H141667 78218                       5.8027595    0.07215  98.8%  26.7  228s
     142671 78852    0.07215   32  373    5.80276    0.07215  98.8%  26.6  230s
     146654 80984    4.39051   39  362    5.80276    0.07260  98.7%  26.6  235s
     150752 83081    3.32593   34  386    5.80276    0.07274  98.7%  26.6  240s
     154694 85018 infeasible   42         5.80276    0.07575  98.7%  26.7  245s
     158653 86998    0.37542   38  377    5.80276    0.10354  98.2%  26.8  250s
     162792 89133 infeasible   54         5.80276    0.10965  98.1%  26.8  255s
     166773 91066    4.14294   45  378    5.80276    0.11601  98.0%  26.8  260s
     170720 92967    4.25705   44  330    5.80276    0.12900  97.8%  26.8  265s
     174698 94787 infeasible   42         5.80276    0.13371  97.7%  26.9  270s
     178688 96745    4.50465   80  322    5.80276    0.14076  97.6%  26.9  275s
    H181528 98172                       5.8027595    0.14076  97.6%  26.9  278s
    H181528 98172                       5.8027583    0.14076  97.6%  26.9  279s
     181635 98261    1.70996   33  379    5.80276    0.14076  97.6%  26.9  280s
     185199 100174    4.22722   44  362    5.80276    0.14076  97.6%  26.9  285s
     189367 102341    5.34114   40  370    5.80276    0.14371  97.5%  26.9  290s
     193210 104035    3.98126   33  371    5.80276    0.14713  97.5%  26.9  295s
    
    Cutting planes:
      Gomory: 3
      Implied bound: 10
      MIR: 24
      Flow cover: 115
      RLT: 15
    
    Explored 196065 nodes (5280553 simplex iterations) in 300.00 seconds (222.84 work units)
    Thread count was 1 (of 96 available processors)
    
    Solution count 10: 5.80276 5.80276 5.90702 ... 5.90703
    
    Time limit reached
    Best objective 5.802758349260e+00, best bound 1.471341684152e-01, gap 97.4644%
    
    User-callback calls 196325, time in user-callback 0.01 sec

--- Reading solution for model GAMS_MODEL
***
*** Solver did not provide marginals for model GAMS_MODEL
***
--- Executing after solve: elapsed 0:05:00.120
--- model.gms(415) 3 Mb
--- model.gms(676) 5 Mb
--- Putfile results /local/scratch/a/sgusev/repos/k_means/data/gams_gurobi_gdp.binary_multiplication/no_mode/2026-02-19_05-10-43/original/results.dat
--- Putfile statresults /local/scratch/a/sgusev/repos/k_means/data/gams_gurobi_gdp.binary_multiplication/no_mode/2026-02-19_05-10-43/original/resultsstat.dat
*** Status: Normal completion
--- Job model.gms Stop 02/19/26 05:15:44 elapsed 0:05:00.121
Original problem solved. Time taken: 300.622789144516 seconds
Original objective value: 5.802758349259838
